 &control
  calculation='bands'
  restart_mode='from_scratch'
  prefix='SrVO3'
  pseudo_dir = '../pseudo'
  outdir='../tmp'
  wf_collect=.true.
 /
 &system
  ibrav=1
  celldm(1)=7.26
  nat=5
  ntyp=3
  ecutwfc=100.0
	occupations='smearing'
	smearing='gaussian'
	degauss=0.01
 /
 &electrons
  electron_maxstep=100
  conv_thr=1.0d-10
  diago_full_acc=.true.
 /
ATOMIC_SPECIES
Sr  88.0   Sr.pbe-mt_fhi.UPF
V   51.0   V.pbe-mt_fhi.UPF
O   18.0   O.pbe-mt_fhi.UPF
ATOMIC_POSITIONS crystal
Sr  0.000000000  0.000000000  0.000000000
V   0.500000000  0.500000000  0.500000000
O   0.000000000  0.500000000  0.500000000
O   0.500000000  0.000000000  0.500000000
O   0.500000000  0.500000000  0.000000000
K_POINTS crystal
#R-G-X-M-G
31
  0.5000000000    0.5000000000    0.5000000000    1.0
  0.4500000000    0.4500000000    0.4500000000    1.0
  0.4000000000    0.4000000000    0.4000000000    1.0
  0.3500000000    0.3500000000    0.3500000000    1.0
  0.3000000000    0.3000000000    0.3000000000    1.0
  0.2500000000    0.2500000000    0.2500000000    1.0
  0.2000000000    0.2000000000    0.2000000000    1.0
  0.1500000000    0.1500000000    0.1500000000    1.0
  0.1000000000    0.1000000000    0.1000000000    1.0
  0.0500000000    0.0500000000    0.0500000000    1.0
  0.0000000000    0.0000000000    0.0000000000    1.0
  0.0000000000    0.0000000000    0.0833333333    1.0
  0.0000000000    0.0000000000    0.1666666667    1.0
  0.0000000000    0.0000000000    0.2500000000    1.0
  0.0000000000    0.0000000000    0.3333333333    1.0
  0.0000000000    0.0000000000    0.4166666667    1.0
  0.0000000000    0.0000000000    0.5000000000    1.0
  0.0000000000    0.0833333333    0.5000000000    1.0
  0.0000000000    0.1666666667    0.5000000000    1.0
  0.0000000000    0.2500000000    0.5000000000    1.0
  0.0000000000    0.3333333333    0.5000000000    1.0
  0.0000000000    0.4166666667    0.5000000000    1.0
  0.0000000000    0.5000000000    0.5000000000    1.0
  0.0000000000    0.4375000000    0.4375000000    1.0
  0.0000000000    0.3750000000    0.3750000000    1.0
  0.0000000000    0.3125000000    0.3125000000    1.0
  0.0000000000    0.2500000000    0.2500000000    1.0
  0.0000000000    0.1875000000    0.1875000000    1.0
  0.0000000000    0.1250000000    0.1250000000    1.0
  0.0000000000    0.0625000000    0.0625000000    1.0
  0.0000000000    0.0000000000    0.0000000000    1.0