&bands
  prefix = 'SrVO3'
  outdir= '../tmp'
  filband = 'bands.dat'
/
