 &control
  calculation='bands'
  restart_mode='from_scratch'
  prefix='SrVO3'
  pseudo_dir = '../pseudo'
  outdir='../tmp'
  wf_collect=.true.
 /
 &system
  ibrav=1
  celldm(1)=7.26
  nat=5
  ntyp=3
  ecutwfc=100.0
	occupations='smearing'
	smearing='gaussian'
	degauss=0.01
 /
 &electrons
  electron_maxstep=100
  conv_thr=1.0d-10
  diago_full_acc=.true.
 /
ATOMIC_SPECIES
Sr  88.0   Sr.pbe-mt_fhi.UPF
V   51.0   V.pbe-mt_fhi.UPF
O   18.0   O.pbe-mt_fhi.UPF
ATOMIC_POSITIONS crystal
Sr  0.000000000  0.000000000  0.000000000
V   0.500000000  0.500000000  0.500000000
O   0.000000000  0.500000000  0.500000000
O   0.500000000  0.000000000  0.500000000
O   0.500000000  0.500000000  0.000000000
K_POINTS crystal
20
  0.062500000  0.062500000  0.062500000   8.0
  0.062500000  0.062500000  0.187500000  24.0
  0.062500000  0.062500000  0.312500000  24.0
  0.062500000  0.062500000  0.437500000  24.0
  0.062500000  0.187500000  0.187500000  24.0
  0.062500000  0.187500000  0.312500000  48.0
  0.062500000  0.187500000  0.437500000  48.0
  0.062500000  0.312500000  0.312500000  24.0
  0.062500000  0.312500000  0.437500000  48.0
  0.062500000  0.437500000  0.437500000  24.0
  0.187500000  0.187500000  0.187500000   8.0
  0.187500000  0.187500000  0.312500000  24.0
  0.187500000  0.187500000  0.437500000  24.0
  0.187500000  0.312500000  0.312500000  24.0
  0.187500000  0.312500000  0.437500000  48.0
  0.187500000  0.437500000  0.437500000  24.0
  0.312500000  0.312500000  0.312500000   8.0
  0.312500000  0.312500000  0.437500000  24.0
  0.312500000  0.437500000  0.437500000  24.0
  0.437500000  0.437500000  0.437500000   8.0
