num_bands = 3
num_wann = 3
exclude_bands: 1-12
write_u_matrices = true

begin unit_cell_cart
bohr
7.260000   0.000000   0.000000  
0.000000   7.260000   0.000000 
0.000000   0.000000   7.260000
end unit_cell_cart

begin atoms_frac
Sr  0.0000000   0.0000000   0.0000000
V   0.5000000   0.5000000   0.5000000
O   0.0000000   0.5000000   0.5000000
O   0.5000000   0.0000000   0.5000000
O   0.5000000   0.5000000   0.0000000
end atoms_frac

begin projections
V : dxy;dxz;dyz
end projections

bands_plot = true
begin kpoint_path
R 0.50000 0.50000 0.50000  G 0.00000 0.00000 0.00000
G 0.00000 0.00000 0.00000  X 0.00000 0.00000 0.50000
X 0.00000 0.00000 0.50000  M 0.00000 0.50000 0.50000
M 0.00000 0.50000 0.50000  G 0.00000 0.00000 0.00000
end kpoint_path

mp_grid = 8 8 8

begin kpoints
  0.00000000  0.00000000  0.00000000 
  0.00000000  0.00000000  0.12500000 
  0.00000000  0.00000000  0.25000000 
  0.00000000  0.00000000  0.37500000 
  0.00000000  0.00000000  0.50000000 
  0.00000000  0.00000000  0.62500000 
  0.00000000  0.00000000  0.75000000 
  0.00000000  0.00000000  0.87500000 
  0.00000000  0.12500000  0.00000000 
  0.00000000  0.12500000  0.12500000 
  0.00000000  0.12500000  0.25000000 
  0.00000000  0.12500000  0.37500000 
  0.00000000  0.12500000  0.50000000 
  0.00000000  0.12500000  0.62500000 
  0.00000000  0.12500000  0.75000000 
  0.00000000  0.12500000  0.87500000 
  0.00000000  0.25000000  0.00000000 
  0.00000000  0.25000000  0.12500000 
  0.00000000  0.25000000  0.25000000 
  0.00000000  0.25000000  0.37500000 
  0.00000000  0.25000000  0.50000000 
  0.00000000  0.25000000  0.62500000 
  0.00000000  0.25000000  0.75000000 
  0.00000000  0.25000000  0.87500000 
  0.00000000  0.37500000  0.00000000 
  0.00000000  0.37500000  0.12500000 
  0.00000000  0.37500000  0.25000000 
  0.00000000  0.37500000  0.37500000 
  0.00000000  0.37500000  0.50000000 
  0.00000000  0.37500000  0.62500000 
  0.00000000  0.37500000  0.75000000 
  0.00000000  0.37500000  0.87500000 
  0.00000000  0.50000000  0.00000000 
  0.00000000  0.50000000  0.12500000 
  0.00000000  0.50000000  0.25000000 
  0.00000000  0.50000000  0.37500000 
  0.00000000  0.50000000  0.50000000 
  0.00000000  0.50000000  0.62500000 
  0.00000000  0.50000000  0.75000000 
  0.00000000  0.50000000  0.87500000 
  0.00000000  0.62500000  0.00000000 
  0.00000000  0.62500000  0.12500000 
  0.00000000  0.62500000  0.25000000 
  0.00000000  0.62500000  0.37500000 
  0.00000000  0.62500000  0.50000000 
  0.00000000  0.62500000  0.62500000 
  0.00000000  0.62500000  0.75000000 
  0.00000000  0.62500000  0.87500000 
  0.00000000  0.75000000  0.00000000 
  0.00000000  0.75000000  0.12500000 
  0.00000000  0.75000000  0.25000000 
  0.00000000  0.75000000  0.37500000 
  0.00000000  0.75000000  0.50000000 
  0.00000000  0.75000000  0.62500000 
  0.00000000  0.75000000  0.75000000 
  0.00000000  0.75000000  0.87500000 
  0.00000000  0.87500000  0.00000000 
  0.00000000  0.87500000  0.12500000 
  0.00000000  0.87500000  0.25000000 
  0.00000000  0.87500000  0.37500000 
  0.00000000  0.87500000  0.50000000 
  0.00000000  0.87500000  0.62500000 
  0.00000000  0.87500000  0.75000000 
  0.00000000  0.87500000  0.87500000 
  0.12500000  0.00000000  0.00000000 
  0.12500000  0.00000000  0.12500000 
  0.12500000  0.00000000  0.25000000 
  0.12500000  0.00000000  0.37500000 
  0.12500000  0.00000000  0.50000000 
  0.12500000  0.00000000  0.62500000 
  0.12500000  0.00000000  0.75000000 
  0.12500000  0.00000000  0.87500000 
  0.12500000  0.12500000  0.00000000 
  0.12500000  0.12500000  0.12500000 
  0.12500000  0.12500000  0.25000000 
  0.12500000  0.12500000  0.37500000 
  0.12500000  0.12500000  0.50000000 
  0.12500000  0.12500000  0.62500000 
  0.12500000  0.12500000  0.75000000 
  0.12500000  0.12500000  0.87500000 
  0.12500000  0.25000000  0.00000000 
  0.12500000  0.25000000  0.12500000 
  0.12500000  0.25000000  0.25000000 
  0.12500000  0.25000000  0.37500000 
  0.12500000  0.25000000  0.50000000 
  0.12500000  0.25000000  0.62500000 
  0.12500000  0.25000000  0.75000000 
  0.12500000  0.25000000  0.87500000 
  0.12500000  0.37500000  0.00000000 
  0.12500000  0.37500000  0.12500000 
  0.12500000  0.37500000  0.25000000 
  0.12500000  0.37500000  0.37500000 
  0.12500000  0.37500000  0.50000000 
  0.12500000  0.37500000  0.62500000 
  0.12500000  0.37500000  0.75000000 
  0.12500000  0.37500000  0.87500000 
  0.12500000  0.50000000  0.00000000 
  0.12500000  0.50000000  0.12500000 
  0.12500000  0.50000000  0.25000000 
  0.12500000  0.50000000  0.37500000 
  0.12500000  0.50000000  0.50000000 
  0.12500000  0.50000000  0.62500000 
  0.12500000  0.50000000  0.75000000 
  0.12500000  0.50000000  0.87500000 
  0.12500000  0.62500000  0.00000000 
  0.12500000  0.62500000  0.12500000 
  0.12500000  0.62500000  0.25000000 
  0.12500000  0.62500000  0.37500000 
  0.12500000  0.62500000  0.50000000 
  0.12500000  0.62500000  0.62500000 
  0.12500000  0.62500000  0.75000000 
  0.12500000  0.62500000  0.87500000 
  0.12500000  0.75000000  0.00000000 
  0.12500000  0.75000000  0.12500000 
  0.12500000  0.75000000  0.25000000 
  0.12500000  0.75000000  0.37500000 
  0.12500000  0.75000000  0.50000000 
  0.12500000  0.75000000  0.62500000 
  0.12500000  0.75000000  0.75000000 
  0.12500000  0.75000000  0.87500000 
  0.12500000  0.87500000  0.00000000 
  0.12500000  0.87500000  0.12500000 
  0.12500000  0.87500000  0.25000000 
  0.12500000  0.87500000  0.37500000 
  0.12500000  0.87500000  0.50000000 
  0.12500000  0.87500000  0.62500000 
  0.12500000  0.87500000  0.75000000 
  0.12500000  0.87500000  0.87500000 
  0.25000000  0.00000000  0.00000000 
  0.25000000  0.00000000  0.12500000 
  0.25000000  0.00000000  0.25000000 
  0.25000000  0.00000000  0.37500000 
  0.25000000  0.00000000  0.50000000 
  0.25000000  0.00000000  0.62500000 
  0.25000000  0.00000000  0.75000000 
  0.25000000  0.00000000  0.87500000 
  0.25000000  0.12500000  0.00000000 
  0.25000000  0.12500000  0.12500000 
  0.25000000  0.12500000  0.25000000 
  0.25000000  0.12500000  0.37500000 
  0.25000000  0.12500000  0.50000000 
  0.25000000  0.12500000  0.62500000 
  0.25000000  0.12500000  0.75000000 
  0.25000000  0.12500000  0.87500000 
  0.25000000  0.25000000  0.00000000 
  0.25000000  0.25000000  0.12500000 
  0.25000000  0.25000000  0.25000000 
  0.25000000  0.25000000  0.37500000 
  0.25000000  0.25000000  0.50000000 
  0.25000000  0.25000000  0.62500000 
  0.25000000  0.25000000  0.75000000 
  0.25000000  0.25000000  0.87500000 
  0.25000000  0.37500000  0.00000000 
  0.25000000  0.37500000  0.12500000 
  0.25000000  0.37500000  0.25000000 
  0.25000000  0.37500000  0.37500000 
  0.25000000  0.37500000  0.50000000 
  0.25000000  0.37500000  0.62500000 
  0.25000000  0.37500000  0.75000000 
  0.25000000  0.37500000  0.87500000 
  0.25000000  0.50000000  0.00000000 
  0.25000000  0.50000000  0.12500000 
  0.25000000  0.50000000  0.25000000 
  0.25000000  0.50000000  0.37500000 
  0.25000000  0.50000000  0.50000000 
  0.25000000  0.50000000  0.62500000 
  0.25000000  0.50000000  0.75000000 
  0.25000000  0.50000000  0.87500000 
  0.25000000  0.62500000  0.00000000 
  0.25000000  0.62500000  0.12500000 
  0.25000000  0.62500000  0.25000000 
  0.25000000  0.62500000  0.37500000 
  0.25000000  0.62500000  0.50000000 
  0.25000000  0.62500000  0.62500000 
  0.25000000  0.62500000  0.75000000 
  0.25000000  0.62500000  0.87500000 
  0.25000000  0.75000000  0.00000000 
  0.25000000  0.75000000  0.12500000 
  0.25000000  0.75000000  0.25000000 
  0.25000000  0.75000000  0.37500000 
  0.25000000  0.75000000  0.50000000 
  0.25000000  0.75000000  0.62500000 
  0.25000000  0.75000000  0.75000000 
  0.25000000  0.75000000  0.87500000 
  0.25000000  0.87500000  0.00000000 
  0.25000000  0.87500000  0.12500000 
  0.25000000  0.87500000  0.25000000 
  0.25000000  0.87500000  0.37500000 
  0.25000000  0.87500000  0.50000000 
  0.25000000  0.87500000  0.62500000 
  0.25000000  0.87500000  0.75000000 
  0.25000000  0.87500000  0.87500000 
  0.37500000  0.00000000  0.00000000 
  0.37500000  0.00000000  0.12500000 
  0.37500000  0.00000000  0.25000000 
  0.37500000  0.00000000  0.37500000 
  0.37500000  0.00000000  0.50000000 
  0.37500000  0.00000000  0.62500000 
  0.37500000  0.00000000  0.75000000 
  0.37500000  0.00000000  0.87500000 
  0.37500000  0.12500000  0.00000000 
  0.37500000  0.12500000  0.12500000 
  0.37500000  0.12500000  0.25000000 
  0.37500000  0.12500000  0.37500000 
  0.37500000  0.12500000  0.50000000 
  0.37500000  0.12500000  0.62500000 
  0.37500000  0.12500000  0.75000000 
  0.37500000  0.12500000  0.87500000 
  0.37500000  0.25000000  0.00000000 
  0.37500000  0.25000000  0.12500000 
  0.37500000  0.25000000  0.25000000 
  0.37500000  0.25000000  0.37500000 
  0.37500000  0.25000000  0.50000000 
  0.37500000  0.25000000  0.62500000 
  0.37500000  0.25000000  0.75000000 
  0.37500000  0.25000000  0.87500000 
  0.37500000  0.37500000  0.00000000 
  0.37500000  0.37500000  0.12500000 
  0.37500000  0.37500000  0.25000000 
  0.37500000  0.37500000  0.37500000 
  0.37500000  0.37500000  0.50000000 
  0.37500000  0.37500000  0.62500000 
  0.37500000  0.37500000  0.75000000 
  0.37500000  0.37500000  0.87500000 
  0.37500000  0.50000000  0.00000000 
  0.37500000  0.50000000  0.12500000 
  0.37500000  0.50000000  0.25000000 
  0.37500000  0.50000000  0.37500000 
  0.37500000  0.50000000  0.50000000 
  0.37500000  0.50000000  0.62500000 
  0.37500000  0.50000000  0.75000000 
  0.37500000  0.50000000  0.87500000 
  0.37500000  0.62500000  0.00000000 
  0.37500000  0.62500000  0.12500000 
  0.37500000  0.62500000  0.25000000 
  0.37500000  0.62500000  0.37500000 
  0.37500000  0.62500000  0.50000000 
  0.37500000  0.62500000  0.62500000 
  0.37500000  0.62500000  0.75000000 
  0.37500000  0.62500000  0.87500000 
  0.37500000  0.75000000  0.00000000 
  0.37500000  0.75000000  0.12500000 
  0.37500000  0.75000000  0.25000000 
  0.37500000  0.75000000  0.37500000 
  0.37500000  0.75000000  0.50000000 
  0.37500000  0.75000000  0.62500000 
  0.37500000  0.75000000  0.75000000 
  0.37500000  0.75000000  0.87500000 
  0.37500000  0.87500000  0.00000000 
  0.37500000  0.87500000  0.12500000 
  0.37500000  0.87500000  0.25000000 
  0.37500000  0.87500000  0.37500000 
  0.37500000  0.87500000  0.50000000 
  0.37500000  0.87500000  0.62500000 
  0.37500000  0.87500000  0.75000000 
  0.37500000  0.87500000  0.87500000 
  0.50000000  0.00000000  0.00000000 
  0.50000000  0.00000000  0.12500000 
  0.50000000  0.00000000  0.25000000 
  0.50000000  0.00000000  0.37500000 
  0.50000000  0.00000000  0.50000000 
  0.50000000  0.00000000  0.62500000 
  0.50000000  0.00000000  0.75000000 
  0.50000000  0.00000000  0.87500000 
  0.50000000  0.12500000  0.00000000 
  0.50000000  0.12500000  0.12500000 
  0.50000000  0.12500000  0.25000000 
  0.50000000  0.12500000  0.37500000 
  0.50000000  0.12500000  0.50000000 
  0.50000000  0.12500000  0.62500000 
  0.50000000  0.12500000  0.75000000 
  0.50000000  0.12500000  0.87500000 
  0.50000000  0.25000000  0.00000000 
  0.50000000  0.25000000  0.12500000 
  0.50000000  0.25000000  0.25000000 
  0.50000000  0.25000000  0.37500000 
  0.50000000  0.25000000  0.50000000 
  0.50000000  0.25000000  0.62500000 
  0.50000000  0.25000000  0.75000000 
  0.50000000  0.25000000  0.87500000 
  0.50000000  0.37500000  0.00000000 
  0.50000000  0.37500000  0.12500000 
  0.50000000  0.37500000  0.25000000 
  0.50000000  0.37500000  0.37500000 
  0.50000000  0.37500000  0.50000000 
  0.50000000  0.37500000  0.62500000 
  0.50000000  0.37500000  0.75000000 
  0.50000000  0.37500000  0.87500000 
  0.50000000  0.50000000  0.00000000 
  0.50000000  0.50000000  0.12500000 
  0.50000000  0.50000000  0.25000000 
  0.50000000  0.50000000  0.37500000 
  0.50000000  0.50000000  0.50000000 
  0.50000000  0.50000000  0.62500000 
  0.50000000  0.50000000  0.75000000 
  0.50000000  0.50000000  0.87500000 
  0.50000000  0.62500000  0.00000000 
  0.50000000  0.62500000  0.12500000 
  0.50000000  0.62500000  0.25000000 
  0.50000000  0.62500000  0.37500000 
  0.50000000  0.62500000  0.50000000 
  0.50000000  0.62500000  0.62500000 
  0.50000000  0.62500000  0.75000000 
  0.50000000  0.62500000  0.87500000 
  0.50000000  0.75000000  0.00000000 
  0.50000000  0.75000000  0.12500000 
  0.50000000  0.75000000  0.25000000 
  0.50000000  0.75000000  0.37500000 
  0.50000000  0.75000000  0.50000000 
  0.50000000  0.75000000  0.62500000 
  0.50000000  0.75000000  0.75000000 
  0.50000000  0.75000000  0.87500000 
  0.50000000  0.87500000  0.00000000 
  0.50000000  0.87500000  0.12500000 
  0.50000000  0.87500000  0.25000000 
  0.50000000  0.87500000  0.37500000 
  0.50000000  0.87500000  0.50000000 
  0.50000000  0.87500000  0.62500000 
  0.50000000  0.87500000  0.75000000 
  0.50000000  0.87500000  0.87500000 
  0.62500000  0.00000000  0.00000000 
  0.62500000  0.00000000  0.12500000 
  0.62500000  0.00000000  0.25000000 
  0.62500000  0.00000000  0.37500000 
  0.62500000  0.00000000  0.50000000 
  0.62500000  0.00000000  0.62500000 
  0.62500000  0.00000000  0.75000000 
  0.62500000  0.00000000  0.87500000 
  0.62500000  0.12500000  0.00000000 
  0.62500000  0.12500000  0.12500000 
  0.62500000  0.12500000  0.25000000 
  0.62500000  0.12500000  0.37500000 
  0.62500000  0.12500000  0.50000000 
  0.62500000  0.12500000  0.62500000 
  0.62500000  0.12500000  0.75000000 
  0.62500000  0.12500000  0.87500000 
  0.62500000  0.25000000  0.00000000 
  0.62500000  0.25000000  0.12500000 
  0.62500000  0.25000000  0.25000000 
  0.62500000  0.25000000  0.37500000 
  0.62500000  0.25000000  0.50000000 
  0.62500000  0.25000000  0.62500000 
  0.62500000  0.25000000  0.75000000 
  0.62500000  0.25000000  0.87500000 
  0.62500000  0.37500000  0.00000000 
  0.62500000  0.37500000  0.12500000 
  0.62500000  0.37500000  0.25000000 
  0.62500000  0.37500000  0.37500000 
  0.62500000  0.37500000  0.50000000 
  0.62500000  0.37500000  0.62500000 
  0.62500000  0.37500000  0.75000000 
  0.62500000  0.37500000  0.87500000 
  0.62500000  0.50000000  0.00000000 
  0.62500000  0.50000000  0.12500000 
  0.62500000  0.50000000  0.25000000 
  0.62500000  0.50000000  0.37500000 
  0.62500000  0.50000000  0.50000000 
  0.62500000  0.50000000  0.62500000 
  0.62500000  0.50000000  0.75000000 
  0.62500000  0.50000000  0.87500000 
  0.62500000  0.62500000  0.00000000 
  0.62500000  0.62500000  0.12500000 
  0.62500000  0.62500000  0.25000000 
  0.62500000  0.62500000  0.37500000 
  0.62500000  0.62500000  0.50000000 
  0.62500000  0.62500000  0.62500000 
  0.62500000  0.62500000  0.75000000 
  0.62500000  0.62500000  0.87500000 
  0.62500000  0.75000000  0.00000000 
  0.62500000  0.75000000  0.12500000 
  0.62500000  0.75000000  0.25000000 
  0.62500000  0.75000000  0.37500000 
  0.62500000  0.75000000  0.50000000 
  0.62500000  0.75000000  0.62500000 
  0.62500000  0.75000000  0.75000000 
  0.62500000  0.75000000  0.87500000 
  0.62500000  0.87500000  0.00000000 
  0.62500000  0.87500000  0.12500000 
  0.62500000  0.87500000  0.25000000 
  0.62500000  0.87500000  0.37500000 
  0.62500000  0.87500000  0.50000000 
  0.62500000  0.87500000  0.62500000 
  0.62500000  0.87500000  0.75000000 
  0.62500000  0.87500000  0.87500000 
  0.75000000  0.00000000  0.00000000 
  0.75000000  0.00000000  0.12500000 
  0.75000000  0.00000000  0.25000000 
  0.75000000  0.00000000  0.37500000 
  0.75000000  0.00000000  0.50000000 
  0.75000000  0.00000000  0.62500000 
  0.75000000  0.00000000  0.75000000 
  0.75000000  0.00000000  0.87500000 
  0.75000000  0.12500000  0.00000000 
  0.75000000  0.12500000  0.12500000 
  0.75000000  0.12500000  0.25000000 
  0.75000000  0.12500000  0.37500000 
  0.75000000  0.12500000  0.50000000 
  0.75000000  0.12500000  0.62500000 
  0.75000000  0.12500000  0.75000000 
  0.75000000  0.12500000  0.87500000 
  0.75000000  0.25000000  0.00000000 
  0.75000000  0.25000000  0.12500000 
  0.75000000  0.25000000  0.25000000 
  0.75000000  0.25000000  0.37500000 
  0.75000000  0.25000000  0.50000000 
  0.75000000  0.25000000  0.62500000 
  0.75000000  0.25000000  0.75000000 
  0.75000000  0.25000000  0.87500000 
  0.75000000  0.37500000  0.00000000 
  0.75000000  0.37500000  0.12500000 
  0.75000000  0.37500000  0.25000000 
  0.75000000  0.37500000  0.37500000 
  0.75000000  0.37500000  0.50000000 
  0.75000000  0.37500000  0.62500000 
  0.75000000  0.37500000  0.75000000 
  0.75000000  0.37500000  0.87500000 
  0.75000000  0.50000000  0.00000000 
  0.75000000  0.50000000  0.12500000 
  0.75000000  0.50000000  0.25000000 
  0.75000000  0.50000000  0.37500000 
  0.75000000  0.50000000  0.50000000 
  0.75000000  0.50000000  0.62500000 
  0.75000000  0.50000000  0.75000000 
  0.75000000  0.50000000  0.87500000 
  0.75000000  0.62500000  0.00000000 
  0.75000000  0.62500000  0.12500000 
  0.75000000  0.62500000  0.25000000 
  0.75000000  0.62500000  0.37500000 
  0.75000000  0.62500000  0.50000000 
  0.75000000  0.62500000  0.62500000 
  0.75000000  0.62500000  0.75000000 
  0.75000000  0.62500000  0.87500000 
  0.75000000  0.75000000  0.00000000 
  0.75000000  0.75000000  0.12500000 
  0.75000000  0.75000000  0.25000000 
  0.75000000  0.75000000  0.37500000 
  0.75000000  0.75000000  0.50000000 
  0.75000000  0.75000000  0.62500000 
  0.75000000  0.75000000  0.75000000 
  0.75000000  0.75000000  0.87500000 
  0.75000000  0.87500000  0.00000000 
  0.75000000  0.87500000  0.12500000 
  0.75000000  0.87500000  0.25000000 
  0.75000000  0.87500000  0.37500000 
  0.75000000  0.87500000  0.50000000 
  0.75000000  0.87500000  0.62500000 
  0.75000000  0.87500000  0.75000000 
  0.75000000  0.87500000  0.87500000 
  0.87500000  0.00000000  0.00000000 
  0.87500000  0.00000000  0.12500000 
  0.87500000  0.00000000  0.25000000 
  0.87500000  0.00000000  0.37500000 
  0.87500000  0.00000000  0.50000000 
  0.87500000  0.00000000  0.62500000 
  0.87500000  0.00000000  0.75000000 
  0.87500000  0.00000000  0.87500000 
  0.87500000  0.12500000  0.00000000 
  0.87500000  0.12500000  0.12500000 
  0.87500000  0.12500000  0.25000000 
  0.87500000  0.12500000  0.37500000 
  0.87500000  0.12500000  0.50000000 
  0.87500000  0.12500000  0.62500000 
  0.87500000  0.12500000  0.75000000 
  0.87500000  0.12500000  0.87500000 
  0.87500000  0.25000000  0.00000000 
  0.87500000  0.25000000  0.12500000 
  0.87500000  0.25000000  0.25000000 
  0.87500000  0.25000000  0.37500000 
  0.87500000  0.25000000  0.50000000 
  0.87500000  0.25000000  0.62500000 
  0.87500000  0.25000000  0.75000000 
  0.87500000  0.25000000  0.87500000 
  0.87500000  0.37500000  0.00000000 
  0.87500000  0.37500000  0.12500000 
  0.87500000  0.37500000  0.25000000 
  0.87500000  0.37500000  0.37500000 
  0.87500000  0.37500000  0.50000000 
  0.87500000  0.37500000  0.62500000 
  0.87500000  0.37500000  0.75000000 
  0.87500000  0.37500000  0.87500000 
  0.87500000  0.50000000  0.00000000 
  0.87500000  0.50000000  0.12500000 
  0.87500000  0.50000000  0.25000000 
  0.87500000  0.50000000  0.37500000 
  0.87500000  0.50000000  0.50000000 
  0.87500000  0.50000000  0.62500000 
  0.87500000  0.50000000  0.75000000 
  0.87500000  0.50000000  0.87500000 
  0.87500000  0.62500000  0.00000000 
  0.87500000  0.62500000  0.12500000 
  0.87500000  0.62500000  0.25000000 
  0.87500000  0.62500000  0.37500000 
  0.87500000  0.62500000  0.50000000 
  0.87500000  0.62500000  0.62500000 
  0.87500000  0.62500000  0.75000000 
  0.87500000  0.62500000  0.87500000 
  0.87500000  0.75000000  0.00000000 
  0.87500000  0.75000000  0.12500000 
  0.87500000  0.75000000  0.25000000 
  0.87500000  0.75000000  0.37500000 
  0.87500000  0.75000000  0.50000000 
  0.87500000  0.75000000  0.62500000 
  0.87500000  0.75000000  0.75000000 
  0.87500000  0.75000000  0.87500000 
  0.87500000  0.87500000  0.00000000 
  0.87500000  0.87500000  0.12500000 
  0.87500000  0.87500000  0.25000000 
  0.87500000  0.87500000  0.37500000 
  0.87500000  0.87500000  0.50000000 
  0.87500000  0.87500000  0.62500000 
  0.87500000  0.87500000  0.75000000 
  0.87500000  0.87500000  0.87500000 
end kpoints