&inputpp
  outdir = '../tmp'
  prefix = 'SrVO3'
  seedname = 'SrVO3'
  write_amn = .true.
  write_mmn = .true.
  write_unk = .true.
  wvfn_formatted = .true.
/
